m = 6; % number of couriers
n = 9; % number of packages

l = [21, 18, 17, 14, 17, 15]; % maximum carriable weight per courier
s = [9, 8, 9, 6, 8, 4, 10, 5, 6]; % weight of each package

D = % distance matrix 
	 [| 16, 10, 4, 16, 11, 12, 5, 13, 5, 4
	 | 10, 12, 10, 9, 5, 8, 7, 10, 9, 10
	 | 4, 10, 15, 13, 4, 12, 11, 12, 11, 6
	 | 16, 9, 13, 7, 5, 8, 7, 16, 12, 7
	 | 11, 5, 4, 5, 15, 10, 9, 13, 8, 11
	 | 12, 8, 12, 8, 10, 5, 11, 12, 16, 10
	 | 5, 7, 11, 7, 9, 11, 6, 7, 6, 11
	 | 13, 10, 12, 16, 13, 12, 7, 12, 7, 7
	 | 5, 9, 11, 12, 8, 16, 6, 7, 10, 12
	 | 6, 7, 11, 4, 9, 9, 13, 10, 5, 12
	 |];